gil250_1
0 224 82 225 38 242 56 113 66 175 103 168 47 55 17 24 40 201 67 51 245 147 134 159 158 227 109 20 110 60 41 178 92 117 240 107 98 196 143 174 48 23 236 111 120 128 187 161 45 179 216 46 63 180 152 156 184 119 239 218 192 144 91 88 247 94 149 151 86 50 77 212 93 200 22 44 37 165 85 243 6 222 169 181 59 75 15 219 102 162 171 132 97 29 0 64 163 157 249 62 237 177 69 190 112 198 96 73 204 207 166 191 19 185 72 79 49 12 133 5 137 30 18 54 173 217 2 170 150 58 183 36 220 65 206 83 230 153 9 26 114 125 101 193 57 214 131 10 42 194 197 80 238 203 11 241 235 43 223 122 39 136 226 78 32 176 233 52 16 3 118 123 8 0